(set-info :smt-lib-version 2.6)
(set-logic LRA)
(set-info :source |
   Monniaux, David; Quantifier Elimination by Lazy Model Enumeration, CAV 2010
|)
(set-info :category "random")
; ./Mjollnir_examples/B5/formula_105.m
(set-info :status unsat)
(assert
 (forall ((|v17:0| Real) )(forall ((|v16:1| Real) )(forall ((|v15:2| Real) )(forall ((|v14:3| Real) )(forall ((|v13:4| Real) )(forall ((|v12:5| Real) )(exists ((|v11:6| Real) )(exists ((|v10:7| Real) )(exists ((|v9:8| Real) )(exists ((|v8:9| Real) )(exists ((|v7:10| Real) )(exists ((|v6:11| Real) )(forall ((|v5:12| Real) )(forall ((|v4:13| Real) )(forall ((|v3:14| Real) )(forall ((|v2:15| Real) )(forall ((|v1:16| Real) )(forall ((|v0:17| Real) )(let ((?x148 (- 7)))
(let ((?x536 (+ (+ (* 11 |v11:6|) (* (- 15) |v2:15|)) (* 5 |v15:2|))))
(let ((?x81 5))
(let ((?x527 (+ (+ (* (- 8) |v0:17|) (* 16 |v14:3|)) (* (- 12) |v16:1|))))
(let (($x540 (and (<= (+ ?x527 (* 3 |v16:1|)) ?x81) (<= (+ ?x536 (* 19 |v0:17|)) ?x148))))
(let ((?x16 (- 10)))
(let ((?x519 (+ (+ (* 20 |v3:14|) (* (- 4) |v14:3|)) (* ?x81 |v16:1|))))
(let ((?x154 13))
(let ((?x511 (+ (+ (* 0 |v16:1|) (* (- 6) |v17:0|)) (* (- 15) |v3:14|))))
(let (($x523 (or (<= (+ ?x511 (* 17 |v17:0|)) ?x154) (<= (+ ?x519 (* (- 11) |v6:11|)) ?x16))))
(let ((?x282 (- 11)))
(let ((?x177 7))
(let ((?x301 (* ?x177 |v10:7|)))
(let ((?x502 (+ (+ (* ?x282 |v11:6|) (* (- 14) |v8:9|)) (* (- 20) |v16:1|))))
(let ((?x144 4))
(let ((?x140 (- 15)))
(let ((?x141 (* ?x140 |v5:12|)))
(let ((?x496 (+ (+ (+ (* (- 13) |v9:8|) (* (- 19) |v14:3|)) ?x141) (* (- 19) |v1:16|))))
(let ((?x29 (- 5)))
(let ((?x33 10))
(let ((?x264 (* ?x33 |v2:15|)))
(let ((?x488 (+ (+ (+ (* 6 |v5:12|) (* (- 8) |v0:17|)) ?x264) (* 8 |v15:2|))))
(let ((?x189 (- 1)))
(let ((?x479 (+ (+ (* 0 |v14:3|) (* (- 14) |v11:6|)) (* (- 3) |v12:5|))))
(let (($x506 (and (or (<= (+ ?x479 (* (- 8) |v8:9|)) ?x189) (<= ?x488 ?x29)) (and (<= ?x496 ?x144) (<= (+ ?x502 ?x301) ?x282)))))
(let ((?x55 2))
(let ((?x474 (+ (+ (+ ?x264 (* (- 17) |v6:11|)) (* (- 3) |v14:3|)) (* ?x55 |v16:1|))))
(let ((?x60 (- 9)))
(let ((?x465 (+ (+ (+ |v17:0| (* (- 8) |v14:3|)) (* 11 |v10:7|)) (* ?x55 |v10:7|))))
(let ((?x24 18))
(let ((?x456 (+ (+ (* (- 4) |v7:10|) (* (- 4) |v6:11|)) (* (- 14) |v6:11|))))
(let ((?x67 11))
(let ((?x449 (+ (+ (+ (* 20 |v16:1|) (* ?x154 |v8:9|)) (* ?x177 |v17:0|)) (* 20 |v14:3|))))
(let ((?x442 (+ (+ (+ (* ?x144 |v13:4|) (* 9 |v0:17|)) (* ?x148 |v16:1|)) (* (- 16) |v12:5|))))
(let (($x468 (and (and (<= ?x442 ?x67) (<= ?x449 ?x67)) (or (<= (+ ?x456 (* ?x16 |v13:4|)) ?x24) (<= ?x465 ?x60)))))
(let ((?x432 (+ (+ (+ (* 15 |v4:13|) (* ?x189 |v8:9|)) (* ?x140 |v11:6|)) (* 12 |v2:15|))))
(let ((?x51 (- 12)))
(let ((?x423 (+ (+ (* ?x177 |v6:11|) (* (- 8) |v11:6|)) (* (- 8) |v2:15|))))
(let ((?x186 20))
(let ((?x418 (+ (+ (+ (* ?x16 |v1:16|) (* ?x154 |v10:7|)) (* ?x189 |v14:3|)) (* 15 |v5:12|))))
(let (($x435 (and (<= ?x418 ?x186) (and (<= (+ ?x423 (* ?x144 |v8:9|)) ?x51) (<= ?x432 ?x282)))))
(let ((?x11 17))
(let ((?x405 (+ (+ (* 6 |v1:16|) (* ?x140 |v14:3|)) (* 16 |v6:11|))))
(let ((?x399 (+ (+ (+ (* ?x24 |v3:14|) (* ?x60 |v6:11|)) (* (- 16) |v15:2|)) (* 9 |v3:14|))))
(let ((?x71 (* ?x67 |v6:11|)))
(let ((?x391 (+ (+ (+ (* (- 18) |v11:6|) (* 19 |v17:0|)) ?x71) (* ?x55 |v9:8|))))
(let ((?x87 0))
(let ((?x64 16))
(let ((?x372 (* ?x64 |v15:2|)))
(let ((?x385 (+ (+ (+ (* ?x140 |v15:2|) (* (- 20) |v1:16|)) ?x372) (* ?x11 |v16:1|))))
(let (($x410 (or (or (<= ?x385 ?x87) (<= ?x391 ?x177)) (or (<= ?x399 ?x189) (<= (+ ?x405 (* (- 20) |v2:15|)) ?x11)))))
(let (($x377 (<= (+ (+ (+ (* ?x177 |v6:11|) ?x372) (* ?x29 |v16:1|)) (* ?x51 |v13:4|)) ?x11)))
(let ((?x279 12))
(let ((?x370 (+ (+ (+ |v6:11| (* 6 |v11:6|)) (* (- 13) |v15:2|)) (* 14 |v13:4|))))
(let ((?x93 (- 3)))
(let ((?x270 (* ?x11 |v6:11|)))
(let (($x362 (<= (+ (+ (+ (* ?x93 |v11:6|) (* ?x55 |v3:14|)) (* ?x64 |v17:0|)) ?x270) ?x93)))
(let ((?x98 (- 2)))
(let ((?x354 (+ (+ (+ (* ?x177 |v16:1|) (* ?x24 |v8:9|)) (* ?x148 |v5:12|)) (* 19 |v9:8|))))
(let (($x470 (and (or (and (and (<= ?x354 ?x98) $x362) (and (<= ?x370 ?x279) $x377)) $x410) (or $x435 $x468))))
(let ((?x342 (+ (+ (+ ?x141 (* (- 13) |v0:17|)) (* ?x67 |v7:10|)) (* ?x64 |v16:1|))))
(let ((?x136 (- 13)))
(let ((?x131 (- 17)))
(let ((?x335 (* ?x131 |v6:11|)))
(let ((?x336 (+ (+ (+ (* ?x51 |v11:6|) (* (- 8) |v4:13|)) (* ?x148 |v8:9|)) ?x335)))
(let ((?x326 (+ (+ (+ (* ?x16 |v6:11|) (* (- 18) |v11:6|)) (* ?x60 |v1:16|)) (* ?x144 |v3:14|))))
(let ((?x316 (+ (+ (+ (* ?x148 |v11:6|) (* ?x11 |v0:17|)) (* ?x189 |v3:14|)) (* 14 |v10:7|))))
(let (($x345 (and (or (<= ?x316 ?x279) (<= ?x326 ?x51)) (or (<= ?x336 ?x136) (<= ?x342 ?x93)))))
(let ((?x306 (+ (+ (+ (* (- 6) |v16:1|) ?x301) (* ?x51 |v9:8|)) (* ?x282 |v13:4|))))
(let ((?x296 (* ?x154 |v8:9|)))
(let ((?x297 (+ (+ (+ (* 9 |v6:11|) (* ?x29 |v11:6|)) (* ?x93 |v14:3|)) ?x296)))
(let ((?x288 6))
(let ((?x286 (* ?x148 |v8:9|)))
(let ((?x287 (+ (+ (+ (* ?x279 |v4:13|) (* ?x282 |v2:15|)) (* 9 |v8:9|)) ?x286)))
(let ((?x251 19))
(let (($x276 (<= (+ (+ (+ (* ?x144 |v4:13|) ?x270) (* ?x16 |v10:7|)) (* ?x87 |v14:3|)) ?x251)))
(let (($x346 (and (or (and $x276 (<= ?x287 ?x288)) (and (<= ?x297 ?x136) (<= ?x306 ?x29))) $x345)))
(let ((?x231 14))
(let ((?x263 (+ (+ (* (- 4) |v4:13|) (* (- 16) |v10:7|)) (* ?x144 |v11:6|))))
(let ((?x257 (+ (+ (+ (* (- 4) |v10:7|) (* ?x251 |v5:12|)) (* ?x148 |v2:15|)) (* ?x131 |v0:17|))))
(let ((?x52 (* ?x51 |v13:4|)))
(let (($x246 (<= (+ (+ (+ (* ?x98 |v17:0|) (* ?x177 |v1:16|)) (* ?x60 |v13:4|)) ?x52) ?x64)))
(let ((?x240 (+ (+ (+ (* ?x29 |v1:16|) (* 8 |v2:15|)) (* ?x154 |v4:13|)) (* ?x189 |v11:6|))))
(let ((?x227 (* ?x24 |v3:14|)))
(let ((?x230 (+ (+ (+ (* 15 |v2:15|) (* 8 |v17:0|)) ?x227) (* ?x81 |v17:0|))))
(let ((?x220 (+ (+ (+ (* (- 16) |v2:15|) (* ?x177 |v6:11|)) (* ?x177 |v7:10|)) (* ?x148 |v13:4|))))
(let (($x268 (and (and (or (<= ?x220 ?x189) (<= ?x230 ?x231)) (and (<= ?x240 ?x24) $x246)) (and (<= ?x257 ?x177) (<= (+ ?x263 ?x264) ?x231)))))
(let ((?x208 (+ (+ (+ (* ?x16 |v17:0|) (* ?x81 |v12:5|)) (* 9 |v11:6|)) (* ?x60 |v7:10|))))
(let ((?x112 (- 14)))
(let ((?x42 (* ?x29 |v0:17|)))
(let (($x202 (<= (+ (+ (+ (* ?x33 |v7:10|) (* 15 |v2:15|)) |v8:9|) ?x42) ?x112)))
(let ((?x195 (+ (+ (+ (* ?x186 |v10:7|) (* ?x189 |v7:10|)) (* ?x154 |v17:0|)) (* ?x55 |v0:17|))))
(let ((?x182 (* ?x67 |v11:6|)))
(let ((?x183 (+ (+ (+ (* ?x148 |v4:13|) (* ?x177 |v1:16|)) (* 9 |v1:16|)) ?x182)))
(let ((?x21 15))
(let ((?x171 (+ (+ (+ (* ?x60 |v17:0|) (* (- 6) |v6:11|)) (* ?x21 |v4:13|)) (* ?x60 |v8:9|))))
(let ((?x163 (+ (+ (+ (* ?x154 |v9:8|) (* 9 |v8:9|)) (* ?x81 |v12:5|)) (* ?x51 |v0:17|))))
(let (($x151 (<= (+ (+ (+ (* ?x136 |v11:6|) ?x141) (* ?x144 |v6:11|)) (* ?x148 |v5:12|)) ?x51)))
(let ((?x109 (- 4)))
(let ((?x129 (+ (+ (* ?x33 |v8:9|) (* (- 6) |v6:11|)) (* (- 6) |v11:6|))))
(let (($x174 (or (and (<= (+ ?x129 (* ?x131 |v7:10|)) ?x109) $x151) (or (<= ?x163 ?x131) (<= ?x171 ?x21)))))
(let (($x212 (and $x174 (and (and (<= ?x183 ?x140) (<= ?x195 ?x98)) (or $x202 (<= ?x208 ?x154))))))
(let ((?x118 (+ (+ (+ (* ?x109 |v11:6|) (* ?x112 |v2:15|)) (* (- 20) |v0:17|)) (* ?x109 |v13:4|))))
(let ((?x104 (+ (+ (+ (* ?x93 |v13:4|) (* ?x11 |v1:16|)) (* ?x98 |v17:0|)) (* (- 20) |v8:9|))))
(let ((?x89 (+ (+ (+ (* ?x16 |v2:15|) (* ?x81 |v3:14|)) (* ?x64 |v8:9|)) (* ?x87 |v3:14|))))
(let (($x75 (<= (+ (+ (+ (* ?x64 |v1:16|) (* ?x67 |v7:10|)) ?x71) (* ?x64 |v13:4|)) ?x29)))
(let (($x76 (or (<= (+ (+ (+ (* ?x33 |v7:10|) ?x52) (* ?x55 |v14:3|)) |v8:9|) ?x60) $x75)))
(let ((?x44 (- 19)))
(let ((?x43 (+ (+ (+ (* ?x29 |v9:8|) (* ?x33 |v17:0|)) (* (- 16) |v3:14|)) ?x42)))
(let (($x25 (<= (+ (+ (+ |v10:7| (* ?x11 |v14:3|)) (* ?x16 |v12:5|)) (* ?x21 |v13:4|)) ?x24)))
(let (($x122 (or (and (and $x25 (<= ?x43 ?x44)) $x76) (and (<= ?x89 ?x81) (or (<= ?x104 1) (<= ?x118 ?x16))))))
(or (and (and $x122 $x212) (or $x268 $x346)) (and $x470 (or (<= ?x474 ?x55) (and $x506 (and $x523 $x540)))))))))))))))))))))))))))))))))))))))))))))))))))))))))))))))))))))))))))))))))))))))))))))))))))))))))))))))))))))
)
)
)
)
)
)
)
)
)
)
)
)
)
)
)
)
)
)
(check-sat)
(exit)

